120 150

57
50
46
58
46
48
53
50
52
49
56
43
54
52
54
53
40
48
56
57
45
55
48
55
41
44
51
42
57
57
52
50
53
53
47
49
48
49
58
56
52
53
41
57
59
51
42
52
53
48
60
45
57
40
58
58
44
53
52
48
50
59
59
46
40
54
46
43
50
41
55
40
52
53
54
43
59
47
58
43
49
50
53
45
45
52
47
58
60
44
43
49
52
53
40
53
50
52
42
41
55
47
52
43
49
49
46
57
48
53
45
51
57
57
47
49
44
49
58
45